NUM_NODES = 10; 
NUM_EDGES = 20;
edges = [|
          0, 1|
          1, 2|
          1, 3|
          1, 3|
          4, 3|
          5, 3|
          1, 4|
          7, 5|
          8, 6|
          5, 8|
          6, 3|
          8, 3|
          9, 8|
          5, 4|
          6, 0|
          2, 0|
          8, 0|
          7, 2|
          7, 4|
          6, 8|];